single_objective/SL-DABL/OP/problems/op/OPLib-master/instances/gen3/u1060-gen3-50.oplib
NAME : u1060
COMMENT : Drilling problem problem (Reinelt)
TYPE : OP
DIMENSION : 1060
COST_LIMIT : 112047
EDGE_WEIGHT_TYPE : EUC_2D
NODE_COORD_SECTION
1 4.00320e+03 2.99790e+03
2 3.60288e+03 2.49825e+03
3 3.95316e+03 2.84800e+03
4 4.15331e+03 2.94793e+03
5 4.35348e+03 2.74807e+03
6 4.65372e+03 2.44828e+03
7 4.70375e+03 2.59818e+03
8 5.30424e+03 2.69811e+03
9 5.15411e+03 3.04786e+03
10 4.45355e+03 3.54751e+03
11 4.55364e+03 3.74737e+03
12 4.85388e+03 3.94723e+03
13 5.20416e+03 4.09713e+03
14 5.30424e+03 3.99720e+03
15 5.45435e+03 3.64744e+03
16 5.45435e+03 3.84730e+03
17 5.40431e+03 4.09713e+03
18 5.45435e+03 4.04716e+03
19 5.45435e+03 4.14709e+03
20 5.35427e+03 4.14709e+03
21 5.30424e+03 4.49685e+03
22 5.30424e+03 4.59677e+03
23 5.35427e+03 4.74667e+03
24 5.15411e+03 4.94653e+03
25 5.05403e+03 4.84660e+03
26 5.05403e+03 4.64674e+03
27 4.85388e+03 4.44688e+03
28 4.85388e+03 4.34695e+03
29 4.85388e+03 4.24702e+03
30 4.70375e+03 3.99720e+03
31 4.55364e+03 4.04716e+03
32 4.65372e+03 4.34695e+03
33 4.85388e+03 4.84660e+03
34 4.75379e+03 4.94653e+03
35 4.90392e+03 5.09642e+03
36 4.85388e+03 5.04646e+03
37 4.55364e+03 5.44618e+03
38 4.85388e+03 5.64604e+03
39 4.95396e+03 5.84590e+03
40 5.05403e+03 5.54611e+03
41 5.05403e+03 5.34625e+03
42 5.15411e+03 5.54611e+03
43 5.30424e+03 5.79594e+03
44 5.40431e+03 5.69601e+03
45 5.45435e+03 5.64604e+03
46 5.55444e+03 5.54611e+03
47 5.55444e+03 5.14639e+03
48 5.60448e+03 5.29629e+03
49 5.75459e+03 5.64604e+03
50 5.60448e+03 5.79594e+03
51 5.45435e+03 5.94583e+03
52 5.35427e+03 6.04576e+03
53 5.25420e+03 6.14569e+03
54 4.95396e+03 6.14569e+03
55 4.60368e+03 6.29559e+03
56 4.55364e+03 6.04576e+03
57 4.50359e+03 5.89587e+03
58 4.45355e+03 6.14569e+03
59 4.45355e+03 6.24562e+03
60 4.40351e+03 6.69531e+03
61 4.25340e+03 6.54541e+03
62 4.30344e+03 6.79524e+03
63 4.30344e+03 6.89516e+03
64 4.10327e+03 6.99509e+03
65 4.25340e+03 7.14499e+03
66 4.40351e+03 7.19496e+03
67 5.05403e+03 7.14499e+03
68 5.35427e+03 7.04506e+03
69 5.10407e+03 6.89516e+03
70 5.00400e+03 6.79524e+03
71 5.20416e+03 6.49544e+03
72 5.35427e+03 6.64534e+03
73 5.50440e+03 6.39551e+03
74 5.70455e+03 6.59538e+03
75 5.80464e+03 6.39551e+03
76 5.85468e+03 6.34555e+03
77 6.15492e+03 6.04576e+03
78 6.60527e+03 5.69601e+03
79 6.65531e+03 5.64604e+03
80 6.65531e+03 5.74597e+03
81 6.50520e+03 5.99579e+03
82 6.35507e+03 5.64604e+03
83 5.90472e+03 5.29629e+03
84 5.60448e+03 4.79664e+03
85 5.75459e+03 4.94653e+03
86 5.90472e+03 4.89657e+03
87 5.95476e+03 4.84660e+03
88 6.00479e+03 4.99650e+03
89 6.35507e+03 5.14639e+03
90 6.50520e+03 4.99650e+03
91 6.40511e+03 4.89657e+03
92 6.25500e+03 4.94653e+03
93 6.65531e+03 4.54681e+03
94 6.55524e+03 4.54681e+03
95 6.55524e+03 3.94723e+03
96 6.45516e+03 3.94723e+03
97 6.45516e+03 4.04716e+03
98 6.30503e+03 4.29698e+03
99 6.25500e+03 4.54681e+03
100 5.75459e+03 4.64674e+03
101 5.80464e+03 4.29698e+03
102 6.00479e+03 4.29698e+03
103 5.85468e+03 4.04716e+03
104 5.85468e+03 3.94723e+03
105 5.75459e+03 3.64744e+03
106 5.80464e+03 3.69740e+03
107 5.85468e+03 3.74737e+03
108 6.15492e+03 3.94723e+03
109 6.60527e+03 3.49755e+03
110 6.65531e+03 3.54751e+03
111 6.55524e+03 3.54751e+03
112 6.60527e+03 3.29768e+03
113 6.55524e+03 3.34765e+03
114 6.60527e+03 3.09783e+03
115 6.45516e+03 3.34765e+03
116 6.30503e+03 3.29768e+03
117 6.30503e+03 3.49755e+03
118 6.15492e+03 3.34765e+03
119 6.15492e+03 3.44758e+03
120 6.25500e+03 3.14779e+03
121 6.10488e+03 3.19775e+03
122 5.45435e+03 3.24772e+03
123 5.55444e+03 3.34765e+03
124 5.75459e+03 3.04786e+03
125 5.65451e+03 2.84800e+03
126 5.65451e+03 2.74807e+03
127 5.60448e+03 2.59818e+03
128 5.85468e+03 2.94793e+03
129 5.85468e+03 3.04786e+03
130 5.95476e+03 2.84800e+03
131 6.05483e+03 2.84800e+03
132 6.45516e+03 2.74807e+03
133 6.15492e+03 2.44828e+03
134 6.10488e+03 2.59818e+03
135 6.05483e+03 2.54821e+03
136 6.00479e+03 2.39831e+03
137 5.65451e+03 2.34835e+03
138 6.35507e+03 1.64884e+03
139 6.40511e+03 1.59888e+03
140 6.45516e+03 1.64884e+03
141 6.80544e+03 1.59888e+03
142 6.90551e+03 1.49894e+03
143 6.95555e+03 1.54891e+03
144 6.90551e+03 1.59888e+03
145 7.00559e+03 1.69881e+03
146 7.10568e+03 1.69881e+03
147 7.05564e+03 1.54891e+03
148 7.00559e+03 1.49894e+03
149 7.10568e+03 1.39901e+03
150 7.20576e+03 1.39901e+03
151 7.25579e+03 1.44898e+03
152 7.35588e+03 1.44898e+03
153 7.35588e+03 1.64884e+03
154 7.45596e+03 1.64884e+03
155 7.80624e+03 1.59888e+03
156 7.90631e+03 1.59888e+03
157 7.90631e+03 1.49894e+03
158 7.95635e+03 1.54891e+03
159 8.00640e+03 1.49894e+03
160 8.05644e+03 1.54891e+03
161 8.10648e+03 1.39901e+03
162 8.20655e+03 1.39901e+03
163 8.25659e+03 1.44898e+03
164 8.35668e+03 1.44898e+03
165 8.00640e+03 1.69881e+03
166 8.10648e+03 1.69881e+03
167 8.35668e+03 1.64884e+03
168 8.45676e+03 1.64884e+03
169 8.80703e+03 1.59888e+03
170 8.90711e+03 1.49894e+03
171 8.95716e+03 1.54891e+03
172 8.90711e+03 1.59888e+03
173 9.00720e+03 1.69881e+03
174 9.10727e+03 1.69881e+03
175 9.05724e+03 1.54891e+03
176 9.00720e+03 1.49894e+03
177 9.10727e+03 1.39901e+03
178 9.20735e+03 1.39901e+03
179 9.25740e+03 1.44898e+03
180 9.35748e+03 1.44898e+03
181 9.35748e+03 1.64884e+03
182 9.45755e+03 1.64884e+03
183 9.80783e+03 1.59888e+03
184 9.90792e+03 1.59888e+03
185 9.90792e+03 1.49894e+03
186 9.95796e+03 1.54891e+03
187 1.00080e+04 1.49894e+03
188 1.00580e+04 1.54891e+03
189 1.00080e+04 1.69881e+03
190 1.01081e+04 1.69881e+03
191 1.03583e+04 1.64884e+03
192 1.04083e+04 1.59888e+03
193 1.04583e+04 1.64884e+03
194 1.08587e+04 2.34835e+03
195 1.08086e+04 2.59818e+03
196 1.12590e+04 2.84800e+03
197 1.11589e+04 2.84800e+03
198 1.09588e+04 2.84800e+03
199 1.06585e+04 2.74807e+03
200 1.06585e+04 3.04786e+03
201 1.04083e+04 2.99790e+03
202 1.04083e+04 2.89796e+03
203 1.03583e+04 2.84800e+03
204 1.04583e+04 2.74807e+03
205 1.03583e+04 2.44828e+03
206 9.80783e+03 2.59818e+03
207 1.01581e+04 3.04786e+03
208 9.95796e+03 3.04786e+03
209 9.75779e+03 3.14779e+03
210 9.75779e+03 2.74807e+03
211 9.70776e+03 2.79803e+03
212 9.65772e+03 2.84800e+03
213 9.60768e+03 2.79803e+03
214 9.35748e+03 2.84800e+03
215 9.20735e+03 2.79803e+03
216 9.25740e+03 2.94793e+03
217 9.65772e+03 3.14779e+03
218 9.45755e+03 3.44758e+03
219 9.55764e+03 3.74737e+03
220 9.35748e+03 3.94723e+03
221 9.75779e+03 3.84730e+03
222 9.70776e+03 3.99720e+03
223 9.80783e+03 3.99720e+03
224 1.01581e+04 4.04716e+03
225 9.80783e+03 4.39692e+03
226 9.85788e+03 4.34695e+03
227 9.90792e+03 4.39692e+03
228 1.01081e+04 4.39692e+03
229 1.01081e+04 4.49685e+03
230 1.02082e+04 4.39692e+03
231 1.03082e+04 4.49685e+03
232 1.04083e+04 4.19705e+03
233 1.04083e+04 4.09713e+03
234 1.06585e+04 4.04716e+03
235 1.08086e+04 4.29698e+03
236 1.08086e+04 4.39692e+03
237 1.05084e+04 4.49685e+03
238 1.05084e+04 4.59677e+03
239 1.07085e+04 4.59677e+03
240 1.08086e+04 4.69670e+03
241 1.04083e+04 4.99650e+03
242 1.05084e+04 4.99650e+03
243 1.05084e+04 5.19635e+03
244 1.08086e+04 4.99650e+03
245 1.09087e+04 4.99650e+03
246 1.08587e+04 4.94653e+03
247 1.10088e+04 4.69670e+03
248 1.12590e+04 4.54681e+03
249 1.11089e+04 4.39692e+03
250 1.10088e+04 4.29698e+03
251 1.10088e+04 4.39692e+03
252 1.11089e+04 4.29698e+03
253 1.12590e+04 4.14709e+03
254 1.15592e+04 3.84730e+03
255 1.13591e+04 4.04716e+03
256 1.13591e+04 3.74737e+03
257 1.11589e+04 3.74737e+03
258 1.09588e+04 3.84730e+03
259 1.05584e+04 3.34765e+03
260 1.03583e+04 3.54751e+03
261 1.05584e+04 3.64744e+03
262 1.08086e+04 3.49755e+03
263 1.08587e+04 3.64744e+03
264 1.12590e+04 3.34765e+03
265 1.13591e+04 3.54751e+03
266 1.15592e+04 3.44758e+03
267 1.15092e+04 3.09783e+03
268 1.20096e+04 2.99790e+03
269 1.22598e+04 2.84800e+03
270 1.19595e+04 2.44828e+03
271 1.18595e+04 2.54821e+03
272 1.20096e+04 2.69811e+03
273 1.22598e+04 2.54821e+03
274 1.28102e+04 2.39831e+03
275 1.25600e+04 2.74807e+03
276 1.26601e+04 2.94793e+03
277 1.24600e+04 2.94793e+03
278 1.23599e+04 3.14779e+03
279 1.23599e+04 3.34765e+03
280 1.22598e+04 3.44758e+03
281 1.27102e+04 3.79733e+03
282 1.24600e+04 3.84730e+03
283 1.21597e+04 3.84730e+03
284 1.21597e+04 3.94723e+03
285 1.20096e+04 4.09713e+03
286 1.18595e+04 4.04716e+03
287 1.19595e+04 4.44688e+03
288 1.20096e+04 4.39692e+03
289 1.21597e+04 4.34695e+03
290 1.25600e+04 4.44688e+03
291 1.24099e+04 4.49685e+03
292 1.23098e+04 4.59677e+03
293 1.24600e+04 4.74667e+03
294 1.24600e+04 4.84660e+03
295 1.24600e+04 4.94653e+03
296 1.27602e+04 4.94653e+03
297 1.27602e+04 5.14639e+03
298 1.24600e+04 5.14639e+03
299 1.25100e+04 5.19635e+03
300 1.24600e+04 5.24632e+03
301 1.22598e+04 5.04646e+03
302 1.21597e+04 5.24632e+03
303 1.20596e+04 4.94653e+03
304 1.18094e+04 4.99650e+03
305 1.18595e+04 5.34625e+03
306 1.16593e+04 5.64604e+03
307 1.15092e+04 5.29629e+03
308 1.15092e+04 5.09642e+03
309 1.16093e+04 4.89657e+03
310 1.15592e+04 4.44688e+03
311 1.16093e+04 4.39692e+03
312 1.16593e+04 4.54681e+03
313 1.14091e+04 4.89657e+03
314 1.13090e+04 4.89657e+03
315 1.14592e+04 5.04646e+03
316 1.13591e+04 5.24632e+03
317 1.13591e+04 5.44618e+03
318 1.16593e+04 5.74597e+03
319 1.18595e+04 5.64604e+03
320 1.21597e+04 5.54611e+03
321 1.22598e+04 5.84590e+03
322 1.20596e+04 6.04576e+03
323 1.21597e+04 6.14569e+03
324 1.20096e+04 6.29559e+03
325 1.21597e+04 6.54541e+03
326 1.23599e+04 5.94583e+03
327 1.24600e+04 6.04576e+03
328 1.27102e+04 6.49544e+03
329 1.25600e+04 6.54541e+03
330 1.25100e+04 6.59538e+03
331 1.22598e+04 6.84520e+03
332 1.21097e+04 6.79524e+03
333 1.21097e+04 6.89516e+03
334 1.19095e+04 6.79524e+03
335 1.21097e+04 6.99509e+03
336 1.23098e+04 7.19496e+03
337 1.23098e+04 7.29488e+03
338 1.24600e+04 7.14499e+03
339 1.27102e+04 6.79524e+03
340 1.27102e+04 6.99509e+03
341 1.27102e+04 7.09503e+03
342 1.30104e+04 6.99509e+03
343 1.32606e+04 7.34485e+03
344 1.31605e+04 6.74527e+03
345 1.30604e+04 6.44548e+03
346 1.33106e+04 6.59538e+03
347 1.33106e+04 6.69531e+03
348 1.34608e+04 6.54541e+03
349 1.31605e+04 6.14569e+03
350 1.25600e+04 5.64604e+03
351 1.25100e+04 5.69601e+03
352 1.27102e+04 5.79594e+03
353 1.29603e+04 5.64604e+03
354 1.29603e+04 5.84590e+03
355 1.32606e+04 6.04576e+03
356 1.33607e+04 6.04576e+03
357 1.34608e+04 6.14569e+03
358 1.34608e+04 5.84590e+03
359 1.37110e+04 5.49614e+03
360 1.38611e+04 5.64604e+03
361 1.36609e+04 5.74597e+03
362 1.35608e+04 5.74597e+03
363 1.33607e+04 5.64604e+03
364 1.33607e+04 5.44618e+03
365 1.32606e+04 5.24632e+03
366 1.35608e+04 5.34625e+03
367 1.35608e+04 5.24632e+03
368 1.37110e+04 5.19635e+03
369 1.36609e+04 5.14639e+03
370 1.33607e+04 4.94653e+03
371 1.31605e+04 4.74667e+03
372 1.34608e+04 4.64674e+03
373 1.33106e+04 4.49685e+03
374 1.29603e+04 4.04716e+03
375 1.32606e+04 4.24702e+03
376 1.36109e+04 4.19705e+03
377 1.39612e+04 4.34695e+03
378 1.40112e+04 4.39692e+03
379 1.40612e+04 4.14709e+03
380 1.39612e+04 4.14709e+03
381 1.39612e+04 3.94723e+03
382 1.39612e+04 3.84730e+03
383 1.37610e+04 3.74737e+03
384 1.36109e+04 3.79733e+03
385 1.33607e+04 3.74737e+03
386 1.34608e+04 3.64744e+03
387 1.35608e+04 3.54751e+03
388 1.38611e+04 3.34765e+03
389 1.28603e+04 3.04786e+03
390 1.29603e+04 3.14779e+03
391 1.34608e+04 2.44828e+03
392 1.38110e+04 2.49825e+03
393 1.38110e+04 2.89796e+03
394 1.40612e+04 2.84800e+03
395 1.41113e+04 2.79803e+03
396 1.42614e+04 2.94793e+03
397 1.44615e+04 2.94793e+03
398 1.46617e+04 2.84800e+03
399 1.46617e+04 3.04786e+03
400 1.47618e+04 3.14779e+03
401 1.48619e+04 3.14779e+03
402 1.50120e+04 3.19775e+03
403 1.48118e+04 3.19775e+03
404 1.44115e+04 3.29768e+03
405 1.43615e+04 3.24772e+03
406 1.41613e+04 3.54751e+03
407 1.44615e+04 3.84730e+03
408 1.45616e+04 3.84730e+03
409 1.47618e+04 3.84730e+03
410 1.47618e+04 4.04716e+03
411 1.48619e+04 4.14709e+03
412 1.48619e+04 4.34695e+03
413 1.49620e+04 4.04716e+03
414 1.51621e+04 3.74737e+03
415 1.51621e+04 3.84730e+03
416 1.53623e+04 3.54751e+03
417 1.54123e+04 3.49755e+03
418 1.54623e+04 3.54751e+03
419 1.53623e+04 3.74737e+03
420 1.50620e+04 4.14709e+03
421 1.50620e+04 4.24702e+03
422 1.51621e+04 4.24702e+03
423 1.54123e+04 4.19705e+03
424 1.55624e+04 3.94723e+03
425 1.55624e+04 3.84730e+03
426 1.56625e+04 3.84730e+03
427 1.58627e+04 3.64744e+03
428 1.51621e+04 2.84800e+03
429 1.52622e+04 2.54821e+03
430 1.53623e+04 2.94793e+03
431 1.54123e+04 2.89796e+03
432 1.55624e+04 2.94793e+03
433 1.58627e+04 2.94793e+03
434 1.60128e+04 2.79803e+03
435 1.60628e+04 2.94793e+03
436 1.61129e+04 2.79803e+03
437 1.62630e+04 2.54821e+03
438 1.62630e+04 2.84800e+03
439 1.62630e+04 3.04786e+03
440 1.62630e+04 3.14779e+03
441 1.62130e+04 3.49755e+03
442 1.63631e+04 3.54751e+03
443 1.65132e+04 3.29768e+03
444 1.65632e+04 3.34765e+03
445 1.67634e+04 3.44758e+03
446 1.69636e+04 3.54751e+03
447 1.65632e+04 3.84730e+03
448 1.65132e+04 3.79733e+03
449 1.66133e+04 3.99720e+03
450 1.67634e+04 4.04716e+03
451 1.69636e+04 3.74737e+03
452 1.70136e+04 3.89727e+03
453 1.73639e+04 4.14709e+03
454 1.73639e+04 4.34695e+03
455 1.72138e+04 4.39692e+03
456 1.68134e+04 4.39692e+03
457 1.67634e+04 4.34695e+03
458 1.66633e+04 4.24702e+03
459 1.66133e+04 4.39692e+03
460 1.64632e+04 4.94653e+03
461 1.62630e+04 4.94653e+03
462 1.62130e+04 4.59677e+03
463 1.61129e+04 4.69670e+03
464 1.57626e+04 4.64674e+03
465 1.58627e+04 5.24632e+03
466 1.54623e+04 5.44618e+03
467 1.57626e+04 5.44618e+03
468 1.58627e+04 5.54611e+03
469 1.59127e+04 5.59607e+03
470 1.56625e+04 5.54611e+03
471 1.56625e+04 5.64604e+03
472 1.56625e+04 5.74597e+03
473 1.55624e+04 5.64604e+03
474 1.55624e+04 5.74597e+03
475 1.57626e+04 5.94583e+03
476 1.58126e+04 5.89587e+03
477 1.60628e+04 5.94583e+03
478 1.59628e+04 6.04576e+03
479 1.59127e+04 6.29559e+03
480 1.57626e+04 6.14569e+03
481 1.57626e+04 6.24562e+03
482 1.54623e+04 6.14569e+03
483 1.54123e+04 6.09572e+03
484 1.46617e+04 4.94653e+03
485 1.44615e+04 4.94653e+03
486 1.44115e+04 4.69670e+03
487 1.42614e+04 4.84660e+03
488 1.41613e+04 4.84660e+03
489 1.41613e+04 5.04646e+03
490 1.39612e+04 5.04646e+03
491 1.43615e+04 5.44618e+03
492 1.44615e+04 5.44618e+03
493 1.43615e+04 5.54611e+03
494 1.41613e+04 5.64604e+03
495 1.45616e+04 5.84590e+03
496 1.49620e+04 6.04576e+03
497 1.50120e+04 6.29559e+03
498 1.46117e+04 6.29559e+03
499 1.44115e+04 6.29559e+03
500 1.44615e+04 6.44548e+03
501 1.44615e+04 6.54541e+03
502 1.46117e+04 6.49544e+03
503 1.49119e+04 6.59538e+03
504 1.49620e+04 6.74527e+03
505 1.44615e+04 6.94513e+03
506 1.40612e+04 6.74527e+03
507 1.42113e+04 6.39551e+03
508 1.40112e+04 6.29559e+03
509 1.40112e+04 6.39551e+03
510 1.40112e+04 6.59538e+03
511 1.39612e+04 6.64534e+03
512 1.40612e+04 6.84520e+03
513 1.40112e+04 6.79524e+03
514 1.44615e+04 7.34485e+03
515 1.50620e+04 6.94513e+03
516 1.51121e+04 6.89516e+03
517 1.51121e+04 6.99509e+03
518 1.50620e+04 6.64534e+03
519 1.52622e+04 6.54541e+03
520 1.52122e+04 6.69531e+03
521 1.52622e+04 6.94513e+03
522 1.53122e+04 6.99509e+03
523 1.53623e+04 7.04506e+03
524 1.55124e+04 6.99509e+03
525 1.56625e+04 6.74527e+03
526 1.59628e+04 6.44548e+03
527 1.61129e+04 6.39551e+03
528 1.61129e+04 6.29559e+03
529 1.62630e+04 6.24562e+03
530 1.63130e+04 6.29559e+03
531 1.62630e+04 6.44548e+03
532 1.59628e+04 6.64534e+03
533 1.61629e+04 6.84520e+03
534 1.65132e+04 6.89516e+03
535 1.64632e+04 7.14499e+03
536 1.69135e+04 6.99509e+03
537 1.69636e+04 6.94513e+03
538 1.72138e+04 7.09503e+03
539 1.67133e+04 6.69531e+03
540 1.68134e+04 6.39551e+03
541 1.68635e+04 6.44548e+03
542 1.70136e+04 6.59538e+03
543 1.72638e+04 6.64534e+03
544 1.73138e+04 6.49544e+03
545 1.78643e+04 6.24562e+03
546 1.75640e+04 6.24562e+03
547 1.73639e+04 6.24562e+03
548 1.73639e+04 5.94583e+03
549 1.70136e+04 6.19566e+03
550 1.65632e+04 6.14569e+03
551 1.65632e+04 6.04576e+03
552 1.67634e+04 5.84590e+03
553 1.68635e+04 5.64604e+03
554 1.64632e+04 5.34625e+03
555 1.65632e+04 5.14639e+03
556 1.66633e+04 4.94653e+03
557 1.68635e+04 5.04646e+03
558 1.69636e+04 4.84660e+03
559 1.71137e+04 4.69670e+03
560 1.70136e+04 4.89657e+03
561 1.70136e+04 4.99650e+03
562 1.69636e+04 5.14639e+03
563 1.71637e+04 5.14639e+03
564 1.71637e+04 5.24632e+03
565 1.72638e+04 5.34625e+03
566 1.74139e+04 5.09642e+03
567 1.74640e+04 5.04646e+03
568 1.76141e+04 5.09642e+03
569 1.78643e+04 4.74667e+03
570 1.77642e+04 4.84660e+03
571 1.75640e+04 4.64674e+03
572 1.78142e+04 5.19635e+03
573 1.79143e+04 5.39622e+03
574 1.79643e+04 5.54611e+03
575 1.81645e+04 5.74597e+03
576 1.82646e+04 5.74597e+03
577 1.83647e+04 5.64604e+03
578 1.84648e+04 5.64604e+03
579 1.82646e+04 5.54611e+03
580 1.83647e+04 5.34625e+03
581 1.84648e+04 5.24632e+03
582 1.85648e+04 5.04646e+03
583 1.84648e+04 5.04646e+03
584 1.83647e+04 5.04646e+03
585 1.82646e+04 5.14639e+03
586 1.82646e+04 4.94653e+03
587 1.81645e+04 4.84660e+03
588 1.80644e+04 4.94653e+03
589 1.80644e+04 4.74667e+03
590 1.81645e+04 4.64674e+03
591 1.82646e+04 4.64674e+03
592 1.77642e+04 4.14709e+03
593 1.77642e+04 4.04716e+03
594 1.76141e+04 3.99720e+03
595 1.75640e+04 4.04716e+03
596 1.75640e+04 3.84730e+03
597 1.74640e+04 3.64744e+03
598 1.72638e+04 3.64744e+03
599 1.70636e+04 3.34765e+03
600 1.68635e+04 3.24772e+03
601 1.65132e+04 2.79803e+03
602 1.66633e+04 2.84800e+03
603 1.68134e+04 2.79803e+03
604 1.70136e+04 2.99790e+03
605 1.69636e+04 2.94793e+03
606 1.71137e+04 2.79803e+03
607 1.73639e+04 2.94793e+03
608 1.74640e+04 2.74807e+03
609 1.73639e+04 2.84800e+03
610 1.69636e+04 2.44828e+03
611 1.68635e+04 2.44828e+03
612 1.68134e+04 1.69881e+03
613 1.69636e+04 1.64884e+03
614 1.67634e+04 1.44898e+03
615 1.65632e+04 1.34905e+03
616 1.67133e+04 1.29909e+03
617 1.69135e+04 1.39901e+03
618 1.70636e+04 1.34905e+03
619 1.71137e+04 1.59888e+03
620 1.72638e+04 1.54891e+03
621 1.73138e+04 1.69881e+03
622 1.74640e+04 1.64884e+03
623 1.74139e+04 1.49894e+03
624 1.72138e+04 1.29909e+03
625 1.75640e+04 1.44898e+03
626 1.76141e+04 1.59888e+03
627 1.77142e+04 1.39901e+03
628 1.77642e+04 1.54891e+03
629 1.78643e+04 1.34905e+03
630 1.80144e+04 1.29909e+03
631 1.80644e+04 1.44898e+03
632 1.79143e+04 1.49894e+03
633 1.81145e+04 1.69881e+03
634 1.82646e+04 1.64884e+03
635 1.84147e+04 1.59888e+03
636 1.82146e+04 1.39901e+03
637 1.83647e+04 1.34905e+03
638 1.85148e+04 1.29909e+03
639 1.86149e+04 1.29909e+03
640 1.86649e+04 1.34905e+03
641 1.86149e+04 1.39901e+03
642 1.86149e+04 1.49894e+03
643 1.86649e+04 1.54891e+03
644 1.86649e+04 1.44898e+03
645 1.87150e+04 1.39901e+03
646 1.87150e+04 1.29909e+03
647 1.87650e+04 1.34905e+03
648 1.88150e+04 1.29909e+03
649 1.88150e+04 1.39901e+03
650 1.88651e+04 1.34905e+03
651 1.89151e+04 1.29909e+03
652 1.89151e+04 1.39901e+03
653 1.88651e+04 1.44898e+03
654 1.89151e+04 1.49894e+03
655 1.89151e+04 1.59888e+03
656 1.89151e+04 1.69881e+03
657 1.88651e+04 1.64884e+03
658 1.88150e+04 1.59888e+03
659 1.88651e+04 1.54891e+03
660 1.88150e+04 1.49894e+03
661 1.87650e+04 1.44898e+03
662 1.87150e+04 1.49894e+03
663 1.87650e+04 1.54891e+03
664 1.87150e+04 1.59888e+03
665 1.87650e+04 1.64884e+03
666 1.88150e+04 1.69881e+03
667 1.87150e+04 1.69881e+03
668 1.86649e+04 1.64884e+03
669 1.86149e+04 1.59888e+03
670 1.86149e+04 1.69881e+03
671 1.78643e+04 2.54821e+03
672 1.84147e+04 2.59818e+03
673 1.85648e+04 2.44828e+03
674 1.83647e+04 2.84800e+03
675 1.82646e+04 2.94793e+03
676 1.85648e+04 3.04786e+03
677 1.87150e+04 2.89796e+03
678 1.89151e+04 2.69811e+03
679 1.88150e+04 2.89796e+03
680 1.86149e+04 3.29768e+03
681 1.85648e+04 3.34765e+03
682 1.84648e+04 3.44758e+03
683 1.78643e+04 2.84800e+03
684 1.78643e+04 3.14779e+03
685 1.79643e+04 3.54751e+03
686 1.80644e+04 3.84730e+03
687 1.82146e+04 3.99720e+03
688 1.82646e+04 3.94723e+03
689 1.83647e+04 3.84730e+03
690 1.84648e+04 3.74737e+03
691 1.87150e+04 4.19705e+03
692 1.86649e+04 4.24702e+03
693 1.84648e+04 4.24702e+03
694 1.82646e+04 4.24702e+03
695 1.83647e+04 4.34695e+03
696 1.85148e+04 4.59677e+03
697 1.84147e+04 4.69670e+03
698 1.86649e+04 4.84660e+03
699 1.89151e+04 4.69670e+03
700 1.89652e+04 4.64674e+03
701 1.88651e+04 4.54681e+03
702 1.88651e+04 4.04716e+03
703 1.88651e+04 3.94723e+03
704 1.88150e+04 3.79733e+03
705 1.88651e+04 3.84730e+03
706 1.90152e+04 4.09713e+03
707 1.91153e+04 4.19705e+03
708 1.92153e+04 4.19705e+03
709 1.94656e+04 3.94723e+03
710 1.94656e+04 3.84730e+03
711 1.94656e+04 3.74737e+03
712 1.91153e+04 3.29768e+03
713 1.93655e+04 3.24772e+03
714 1.94656e+04 2.94793e+03
715 1.93655e+04 2.84800e+03
716 1.91153e+04 2.69811e+03
717 1.93655e+04 2.54821e+03
718 1.97158e+04 2.49825e+03
719 2.13170e+04 2.09853e+03
720 1.95156e+04 4.09713e+03
721 1.93655e+04 4.14709e+03
722 1.93154e+04 4.19705e+03
723 1.91653e+04 4.64674e+03
724 1.93655e+04 4.74667e+03
725 1.92153e+04 5.09642e+03
726 1.90152e+04 5.19635e+03
727 1.91153e+04 5.29629e+03
728 1.92153e+04 5.29629e+03
729 1.91153e+04 5.49614e+03
730 1.89151e+04 5.99579e+03
731 1.89652e+04 5.94583e+03
732 1.94155e+04 6.29559e+03
733 1.97158e+04 7.19496e+03
734 1.88150e+04 6.19566e+03
735 1.86649e+04 6.14569e+03
736 1.84648e+04 5.84590e+03
737 1.81645e+04 6.04576e+03
738 1.81645e+04 6.14569e+03
739 1.84648e+04 6.54541e+03
740 1.82146e+04 6.59538e+03
741 1.81145e+04 6.89516e+03
742 1.83146e+04 7.19496e+03
743 1.82146e+04 7.19496e+03
744 1.81645e+04 7.14499e+03
745 1.80644e+04 7.14499e+03
746 1.80144e+04 7.19496e+03
747 1.79643e+04 7.14499e+03
748 1.77642e+04 7.14499e+03
749 1.74640e+04 7.34485e+03
750 1.68635e+04 8.34415e+03
751 1.68134e+04 8.39411e+03
752 1.67634e+04 8.34415e+03
753 1.64131e+04 8.39411e+03
754 1.63130e+04 8.49405e+03
755 1.62630e+04 8.44408e+03
756 1.63130e+04 8.39411e+03
757 1.62130e+04 8.29418e+03
758 1.61129e+04 8.29418e+03
759 1.61629e+04 8.44408e+03
760 1.62130e+04 8.49405e+03
761 1.61129e+04 8.59398e+03
762 1.60128e+04 8.59398e+03
763 1.59628e+04 8.54401e+03
764 1.58627e+04 8.54401e+03
765 1.58627e+04 8.34415e+03
766 1.57626e+04 8.34415e+03
767 1.54123e+04 8.39411e+03
768 1.53122e+04 8.39411e+03
769 1.53122e+04 8.49405e+03
770 1.52622e+04 8.44408e+03
771 1.52122e+04 8.49405e+03
772 1.51121e+04 8.59398e+03
773 1.50120e+04 8.59398e+03
774 1.49620e+04 8.54401e+03
775 1.48619e+04 8.54401e+03
776 1.51621e+04 8.44408e+03
777 1.52122e+04 8.29418e+03
778 1.51121e+04 8.29418e+03
779 1.48619e+04 8.34415e+03
780 1.47618e+04 8.34415e+03
781 1.44115e+04 8.39411e+03
782 1.43114e+04 8.49405e+03
783 1.42614e+04 8.44408e+03
784 1.43114e+04 8.39411e+03
785 1.42113e+04 8.29418e+03
786 1.41113e+04 8.29418e+03
787 1.41613e+04 8.44408e+03
788 1.42113e+04 8.49405e+03
789 1.41113e+04 8.59398e+03
790 1.40112e+04 8.59398e+03
791 1.39612e+04 8.54401e+03
792 1.38611e+04 8.54401e+03
793 1.38611e+04 8.34415e+03
794 1.37610e+04 8.34415e+03
795 1.34107e+04 8.39411e+03
796 1.33106e+04 8.39411e+03
797 1.33106e+04 8.49405e+03
798 1.32606e+04 8.44408e+03
799 1.32105e+04 8.49405e+03
800 1.31605e+04 8.44408e+03
801 1.32105e+04 8.29418e+03
802 1.31105e+04 8.29418e+03
803 1.28603e+04 8.34415e+03
804 1.28102e+04 8.39411e+03
805 1.27602e+04 8.34415e+03
806 1.15092e+04 7.19496e+03
807 1.12590e+04 6.84520e+03
808 1.10088e+04 7.09503e+03
809 1.07586e+04 6.94513e+03
810 1.10088e+04 6.79524e+03
811 1.10088e+04 6.69531e+03
812 1.11089e+04 6.49544e+03
813 1.15092e+04 6.49544e+03
814 1.11089e+04 6.09572e+03
815 1.11589e+04 5.94583e+03
816 1.12590e+04 5.54611e+03
817 1.10088e+04 5.79594e+03
818 1.07085e+04 6.09572e+03
819 1.03583e+04 5.64604e+03
820 1.04083e+04 5.79594e+03
821 1.04583e+04 6.04576e+03
822 1.03082e+04 6.29559e+03
823 1.02082e+04 6.39551e+03
824 1.02082e+04 6.49544e+03
825 1.03583e+04 6.84520e+03
826 1.02082e+04 6.79524e+03
827 9.75779e+03 6.74527e+03
828 9.40751e+03 6.79524e+03
829 9.45755e+03 6.94513e+03
830 9.75779e+03 7.04506e+03
831 1.00580e+04 7.14499e+03
832 9.80783e+03 6.89516e+03
833 9.75779e+03 6.44548e+03
834 9.90792e+03 6.29559e+03
835 1.01581e+04 6.14569e+03
836 9.95796e+03 5.94583e+03
837 1.01581e+04 5.84590e+03
838 9.75779e+03 5.84590e+03
839 1.01581e+04 5.34625e+03
840 1.03583e+04 5.14639e+03
841 1.01581e+04 5.14639e+03
842 1.01581e+04 4.94653e+03
843 1.00580e+04 4.84660e+03
844 1.00580e+04 4.94653e+03
845 1.00080e+04 5.09642e+03
846 9.95796e+03 5.04646e+03
847 9.65772e+03 5.04646e+03
848 9.60768e+03 5.09642e+03
849 9.55764e+03 5.14639e+03
850 9.55764e+03 5.04646e+03
851 9.45755e+03 4.94653e+03
852 9.65772e+03 4.94653e+03
853 1.00580e+04 4.54681e+03
854 9.90792e+03 4.59677e+03
855 9.60768e+03 4.59677e+03
856 9.70776e+03 4.39692e+03
857 9.55764e+03 4.34695e+03
858 9.45755e+03 4.24702e+03
859 9.55764e+03 4.14709e+03
860 9.55764e+03 4.24702e+03
861 9.05724e+03 4.14709e+03
862 8.95716e+03 4.04716e+03
863 8.95716e+03 3.84730e+03
864 9.05724e+03 3.84730e+03
865 9.05724e+03 3.74737e+03
866 8.95716e+03 3.44758e+03
867 9.00720e+03 2.79803e+03
868 8.75700e+03 2.84800e+03
869 8.35668e+03 3.04786e+03
870 8.15651e+03 2.74807e+03
871 8.15651e+03 3.04786e+03
872 8.05644e+03 3.04786e+03
873 7.95635e+03 2.94793e+03
874 7.85627e+03 2.84800e+03
875 7.75620e+03 2.54821e+03
876 7.75620e+03 2.44828e+03
877 7.65611e+03 2.54821e+03
878 7.70616e+03 2.79803e+03
879 7.60607e+03 2.79803e+03
880 7.85627e+03 3.14779e+03
881 7.75620e+03 3.34765e+03
882 7.55603e+03 3.44758e+03
883 6.95555e+03 3.24772e+03
884 6.95555e+03 2.84800e+03
885 7.10568e+03 2.59818e+03
886 7.05564e+03 2.84800e+03
887 7.10568e+03 2.79803e+03
888 6.75540e+03 3.24772e+03
889 7.00559e+03 3.49755e+03
890 6.95555e+03 3.84730e+03
891 7.00559e+03 3.89727e+03
892 6.75540e+03 4.14709e+03
893 7.15572e+03 3.84730e+03
894 7.25579e+03 4.14709e+03
895 7.55603e+03 4.24702e+03
896 7.30583e+03 4.49685e+03
897 7.50600e+03 4.59677e+03
898 7.45596e+03 4.84660e+03
899 7.65611e+03 4.84660e+03
900 7.85627e+03 4.34695e+03
901 7.75620e+03 4.14709e+03
902 8.05644e+03 4.24702e+03
903 8.05644e+03 4.04716e+03
904 8.10648e+03 3.99720e+03
905 8.15651e+03 3.94723e+03
906 8.15651e+03 4.04716e+03
907 8.35668e+03 3.94723e+03
908 8.55683e+03 3.84730e+03
909 8.35668e+03 3.54751e+03
910 8.55683e+03 3.54751e+03
911 8.60688e+03 3.59748e+03
912 8.65692e+03 3.94723e+03
913 8.60688e+03 3.99720e+03
914 8.65692e+03 4.14709e+03
915 8.75700e+03 4.24702e+03
916 8.60688e+03 4.29698e+03
917 8.50679e+03 4.49685e+03
918 8.75700e+03 4.64674e+03
919 8.90711e+03 4.39692e+03
920 9.00720e+03 4.59677e+03
921 9.10727e+03 4.39692e+03
922 9.20735e+03 4.59677e+03
923 9.05724e+03 4.84660e+03
924 8.75700e+03 4.84660e+03
925 8.60688e+03 4.99650e+03
926 8.55683e+03 4.84660e+03
927 8.35668e+03 4.94653e+03
928 8.35668e+03 5.64604e+03
929 8.45676e+03 5.94583e+03
930 8.35668e+03 5.84590e+03
931 8.35668e+03 5.94583e+03
932 8.35668e+03 6.14569e+03
933 8.35668e+03 6.24562e+03
934 8.30664e+03 6.39551e+03
935 8.95716e+03 6.04576e+03
936 9.05724e+03 6.04576e+03
937 9.15731e+03 5.94583e+03
938 9.05724e+03 5.74597e+03
939 9.50759e+03 5.89587e+03
940 9.15731e+03 6.24562e+03
941 9.00720e+03 6.49544e+03
942 8.80703e+03 6.99509e+03
943 8.25659e+03 7.14499e+03
944 8.40672e+03 7.29488e+03
945 8.10648e+03 6.99509e+03
946 8.10648e+03 6.89516e+03
947 8.05644e+03 6.84520e+03
948 7.90631e+03 6.89516e+03
949 7.65611e+03 6.44548e+03
950 7.35588e+03 6.14569e+03
951 7.65611e+03 5.94583e+03
952 7.85627e+03 5.74597e+03
953 8.10648e+03 5.69601e+03
954 7.95635e+03 5.94583e+03
955 7.45596e+03 5.94583e+03
956 7.35588e+03 5.84590e+03
957 7.05564e+03 6.14569e+03
958 6.90551e+03 5.89587e+03
959 6.95555e+03 6.04576e+03
960 6.95555e+03 6.14569e+03
961 6.85548e+03 6.14569e+03
962 6.85548e+03 6.24562e+03
963 7.00559e+03 6.29559e+03
964 7.25579e+03 6.34555e+03
965 6.90551e+03 6.89516e+03
966 7.80624e+03 6.99509e+03
967 8.00640e+03 7.29488e+03
968 7.90631e+03 7.29488e+03
969 7.75620e+03 7.34485e+03
970 6.65531e+03 8.64394e+03
971 6.45516e+03 8.54401e+03
972 6.50520e+03 8.69390e+03
973 6.30503e+03 8.59398e+03
974 6.15492e+03 8.64394e+03
975 6.40511e+03 8.29418e+03
976 6.25500e+03 8.34415e+03
977 6.10488e+03 8.39411e+03
978 5.95476e+03 8.44408e+03
979 5.90472e+03 8.29418e+03
980 5.75459e+03 8.34415e+03
981 5.80464e+03 8.49405e+03
982 6.00479e+03 8.69390e+03
983 5.65451e+03 8.54401e+03
984 5.60448e+03 8.39411e+03
985 5.50440e+03 8.59398e+03
986 5.45435e+03 8.44408e+03
987 5.35427e+03 8.64394e+03
988 5.20416e+03 8.69390e+03
989 5.15411e+03 8.54401e+03
990 5.30424e+03 8.49405e+03
991 5.10407e+03 8.29418e+03
992 4.95396e+03 8.34415e+03
993 4.80383e+03 8.39411e+03
994 5.00400e+03 8.59398e+03
995 4.85388e+03 8.64394e+03
996 4.70375e+03 8.69390e+03
997 4.60368e+03 8.69390e+03
998 4.55364e+03 8.64394e+03
999 4.60368e+03 8.59398e+03
1000 4.60368e+03 8.49405e+03
1001 4.55364e+03 8.44408e+03
1002 4.55364e+03 8.54401e+03
1003 4.50359e+03 8.59398e+03
1004 4.50359e+03 8.69390e+03
1005 4.45355e+03 8.64394e+03
1006 4.40351e+03 8.69390e+03
1007 4.40351e+03 8.59398e+03
1008 4.45355e+03 8.54401e+03
1009 4.50359e+03 8.49405e+03
1010 4.40351e+03 8.49405e+03
1011 4.45355e+03 8.44408e+03
1012 4.50359e+03 8.39411e+03
1013 4.55364e+03 8.34415e+03
1014 4.60368e+03 8.39411e+03
1015 4.60368e+03 8.29418e+03
1016 4.50359e+03 8.29418e+03
1017 4.45355e+03 8.34415e+03
1018 4.40351e+03 8.29418e+03
1019 4.35348e+03 8.34415e+03
1020 4.40351e+03 8.39411e+03
1021 4.35348e+03 8.44408e+03
1022 4.35348e+03 8.54401e+03
1023 4.35348e+03 8.64394e+03
1024 4.30344e+03 8.69390e+03
1025 4.30344e+03 8.59398e+03
1026 4.30344e+03 8.49405e+03
1027 4.30344e+03 8.39411e+03
1028 4.30344e+03 8.29418e+03
1029 3.60288e+03 7.19496e+03
1030 1.90151e+03 7.89446e+03
1031 4.05324e+03 6.04576e+03
1032 4.25340e+03 5.94583e+03
1033 4.30344e+03 5.89587e+03
1034 4.35348e+03 5.74597e+03
1035 4.25340e+03 5.74597e+03
1036 4.15331e+03 5.74597e+03
1037 4.05324e+03 5.74597e+03
1038 4.05324e+03 5.54611e+03
1039 4.35348e+03 5.44618e+03
1040 4.35348e+03 5.34625e+03
1041 4.35348e+03 5.24632e+03
1042 4.45355e+03 5.04646e+03
1043 4.40351e+03 4.79664e+03
1044 4.45355e+03 4.84660e+03
1045 4.15331e+03 5.24632e+03
1046 4.00320e+03 5.09642e+03
1047 4.15331e+03 5.04646e+03
1048 4.05324e+03 4.94653e+03
1049 4.05324e+03 4.74667e+03
1050 4.40351e+03 4.59677e+03
1051 4.35348e+03 4.24702e+03
1052 4.05324e+03 4.14709e+03
1053 4.40351e+03 3.89727e+03
1054 4.30344e+03 3.99720e+03
1055 4.00320e+03 3.79733e+03
1056 4.05324e+03 3.64744e+03
1057 4.00320e+03 3.59748e+03
1058 4.05324e+03 3.44758e+03
1059 4.25340e+03 3.34765e+03
1060 4.15331e+03 3.14779e+03
NODE_SCORE_SECTION
1 0
2 4
3 1
4 1
5 3
6 5
7 5
8 8
9 7
10 5
11 6
12 8
13 10
14 10
15 10
16 10
17 11
18 11
19 11
20 11
21 12
22 12
23 13
24 13
25 13
26 12
27 10
28 10
29 9
30 7
31 7
32 9
33 12
34 12
35 14
36 13
37 15
38 16
39 18
40 16
41 15
42 16
43 18
44 18
45 18
46 18
47 16
48 16
49 19
50 19
51 19
52 20
53 20
54 19
55 20
56 18
57 17
58 19
59 19
60 22
61 21
62 22
63 23
64 23
65 24
66 25
67 25
68 25
69 24
70 23
71 22
72 23
73 22
74 23
75 22
76 22
77 22
78 22
79 22
80 22
81 23
82 21
83 18
84 14
85 15
86 16
87 16
88 17
89 19
90 19
91 18
92 18
93 18
94 18
95 16
96 16
97 16
98 16
99 16
100 14
101 13
102 14
103 13
104 12
105 11
106 12
107 12
108 14
109 16
110 16
111 15
112 15
113 15
114 15
115 15
116 14
117 14
118 13
119 13
120 13
121 13
122 9
123 10
124 11
125 10
126 10
127 10
128 11
129 11
130 12
131 12
132 15
133 13
134 13
135 12
136 12
137 11
138 16
139 16
140 16
141 18
142 19
143 19
144 19
145 19
146 20
147 20
148 20
149 20
150 21
151 21
152 22
153 21
154 22
155 24
156 24
157 24
158 25
159 25
160 25
161 26
162 26
163 26
164 27
165 25
166 25
167 27
168 27
169 29
170 30
171 30
172 30
173 30
174 31
175 31
176 30
177 31
178 32
179 32
180 32
181 32
182 33
183 35
184 35
185 35
186 35
187 36
188 36
189 36
190 36
191 38
192 38
193 38
194 40
195 39
196 42
197 41
198 40
199 39
200 39
201 37
202 37
203 37
204 37
205 37
206 34
207 36
208 35
209 33
210 33
211 33
212 33
213 33
214 31
215 30
216 31
217 33
218 32
219 33
220 32
221 34
222 34
223 34
224 36
225 35
226 35
227 35
228 36
229 36
230 37
231 38
232 38
233 38
234 39
235 40
236 40
237 39
238 39
239 40
240 41
241 39
242 39
243 40
244 41
245 42
246 41
247 42
248 43
249 42
250 41
251 41
252 42
253 42
254 44
255 43
256 43
257 42
258 41
259 38
260 37
261 38
262 39
263 40
264 42
265 43
266 44
267 43
268 46
269 48
270 46
271 45
272 46
273 48
274 51
275 49
276 50
277 49
278 48
279 48
280 48
281 50
282 49
283 47
284 47
285 47
286 46
287 47
288 47
289 48
290 50
291 49
292 49
293 50
294 50
295 50
296 52
297 52
298 50
299 51
300 50
301 49
302 49
303 48
304 47
305 47
306 47
307 45
308 45
309 45
310 44
311 45
312 45
313 44
314 44
315 45
316 44
317 45
318 47
319 48
320 49
321 50
322 50
323 50
324 50
325 51
326 51
327 52
328 54
329 53
330 53
331 53
332 52
333 52
334 51
335 52
336 54
337 54
338 54
339 55
340 55
341 55
342 57
343 59
344 57
345 56
346 57
347 58
348 58
349 56
350 52
351 51
352 53
353 54
354 54
355 56
356 57
357 57
358 57
359 58
360 59
361 58
362 57
363 56
364 56
365 55
366 57
367 57
368 57
369 57
370 55
371 54
372 55
373 54
374 52
375 54
376 56
377 58
378 58
379 58
380 58
381 58
382 58
383 56
384 56
385 54
386 55
387 55
388 57
389 51
390 52
391 55
392 57
393 57
394 58
395 58
396 59
397 60
398 61
399 61
400 62
401 63
402 63
403 62
404 60
405 60
406 59
407 60
408 61
409 62
410 62
411 63
412 63
413 63
414 64
415 64
416 65
417 66
418 66
419 66
420 64
421 64
422 65
423 66
424 67
425 67
426 67
427 68
428 64
429 65
430 65
431 66
432 67
433 68
434 69
435 69
436 70
437 71
438 71
439 71
440 71
441 70
442 71
443 72
444 72
445 73
446 75
447 72
448 72
449 73
450 74
451 75
452 75
453 77
454 77
455 76
456 74
457 74
458 73
459 73
460 73
461 71
462 71
463 70
464 68
465 69
466 67
467 69
468 70
469 70
470 69
471 69
472 69
473 68
474 68
475 70
476 70
477 71
478 71
479 71
480 70
481 70
482 68
483 68
484 62
485 61
486 61
487 60
488 59
489 60
490 59
491 61
492 62
493 61
494 60
495 63
496 65
497 66
498 64
499 63
500 63
501 64
502 64
503 66
504 67
505 64
506 62
507 62
508 61
509 61
510 61
511 61
512 62
513 62
514 65
515 68
516 68
517 68
518 67
519 68
520 68
521 69
522 69
523 69
524 70
525 70
526 72
527 72
528 72
529 73
530 73
531 73
532 72
533 73
534 75
535 75
536 78
537 78
538 79
539 76
540 76
541 77
542 78
543 79
544 79
545 82
546 80
547 79
548 79
549 77
550 74
551 74
552 75
553 75
554 73
555 73
556 74
557 75
558 75
559 76
560 76
561 76
562 76
563 77
564 77
565 77
566 78
567 78
568 79
569 80
570 80
571 79
572 80
573 81
574 82
575 83
576 83
577 84
578 84
579 83
580 84
581 84
582 84
583 84
584 83
585 83
586 83
587 82
588 82
589 81
590 82
591 82
592 79
593 79
594 78
595 78
596 78
597 77
598 76
599 75
600 74
601 72
602 73
603 74
604 75
605 75
606 75
607 77
608 77
609 77
610 75
611 74
612 74
613 75
614 74
615 73
616 74
617 75
618 76
619 76
620 77
621 77
622 78
623 78
624 77
625 78
626 79
627 79
628 80
629 80
630 81
631 81
632 80
633 81
634 82
635 83
636 82
637 83
638 84
639 84
640 85
641 84
642 84
643 85
644 85
645 85
646 85
647 85
648 86
649 86
650 86
651 86
652 86
653 86
654 86
655 86
656 86
657 86
658 85
659 86
660 86
661 85
662 85
663 85
664 85
665 85
666 85
667 85
668 85
669 84
670 84
671 80
672 83
673 84
674 83
675 82
676 84
677 85
678 86
679 85
680 84
681 84
682 83
683 80
684 80
685 80
686 81
687 82
688 82
689 83
690 83
691 85
692 85
693 83
694 82
695 83
696 84
697 83
698 85
699 86
700 86
701 86
702 86
703 86
704 85
705 86
706 86
707 87
708 88
709 89
710 89
711 89
712 87
713 88
714 89
715 88
716 87
717 88
718 90
719 100
720 89
721 88
722 88
723 88
724 89
725 88
726 87
727 88
728 88
729 88
730 87
731 88
732 91
733 93
734 87
735 86
736 85
737 83
738 83
739 86
740 84
741 84
742 86
743 85
744 85
745 84
746 84
747 84
748 83
749 81
750 80
751 80
752 80
753 78
754 77
755 77
756 77
757 76
758 76
759 77
760 77
761 77
762 76
763 76
764 75
765 75
766 74
767 73
768 72
769 72
770 72
771 72
772 72
773 71
774 71
775 70
776 71
777 71
778 71
779 70
780 69
781 67
782 67
783 67
784 67
785 66
786 66
787 66
788 67
789 66
790 66
791 66
792 65
793 65
794 64
795 62
796 62
797 62
798 62
799 62
800 61
801 61
802 61
803 60
804 59
805 59
806 50
807 47
808 47
809 45
810 46
811 46
812 46
813 48
814 45
815 45
816 44
817 44
818 43
819 40
820 40
821 41
822 41
823 41
824 41
825 43
826 42
827 40
828 38
829 39
830 41
831 42
832 40
833 39
834 39
835 40
836 38
837 39
838 37
839 38
840 39
841 38
842 37
843 37
844 37
845 37
846 36
847 35
848 35
849 35
850 34
851 34
852 35
853 36
854 35
855 34
856 34
857 33
858 32
859 33
860 33
861 30
862 29
863 29
864 30
865 30
866 29
867 29
868 28
869 25
870 24
871 24
872 24
873 23
874 23
875 22
876 22
877 22
878 22
879 21
880 23
881 22
882 21
883 17
884 17
885 18
886 18
887 18
888 16
889 18
890 18
891 18
892 18
893 19
894 20
895 22
896 21
897 22
898 23
899 24
900 24
901 23
902 25
903 24
904 25
905 25
906 25
907 26
908 27
909 26
910 27
911 27
912 28
913 27
914 28
915 29
916 28
917 28
918 29
919 30
920 30
921 31
922 32
923 31
924 30
925 29
926 29
927 28
928 30
929 31
930 30
931 31
932 31
933 32
934 32
935 34
936 34
937 34
938 33
939 36
940 35
941 35
942 36
943 34
944 36
945 33
946 33
947 32
948 32
949 29
950 27
951 27
952 28
953 29
954 29
955 26
956 26
957 26
958 24
959 25
960 25
961 25
962 25
963 26
964 27
965 28
966 32
967 34
968 34
969 33
970 36
971 35
972 36
973 35
974 35
975 34
976 34
977 34
978 34
979 33
980 33
981 34
982 35
983 34
984 33
985 34
986 33
987 34
988 34
989 33
990 33
991 31
992 32
993 32
994 33
995 33
996 33
997 33
998 33
999 33
1000 32
1001 32
1002 32
1003 33
1004 33
1005 33
1006 33
1007 33
1008 32
1009 32
1010 32
1011 32
1012 31
1013 31
1014 32
1015 31
1016 31
1017 31
1018 31
1019 31
1020 31
1021 32
1022 32
1023 33
1024 33
1025 33
1026 32
1027 31
1028 31
1029 25
1030 31
1031 18
1032 17
1033 17
1034 16
1035 16
1036 16
1037 16
1038 15
1039 15
1040 14
1041 13
1042 12
1043 11
1044 11
1045 13
1046 12
1047 12
1048 12
1049 10
1050 10
1051 8
1052 7
1053 6
1054 6
1055 5
1056 4
1057 4
1058 3
1059 3
1060 2
DEPOT_SECTION
1
-1
EOF
