single_objective/SL-DABL/OP/problems/op/OPLib-master/solutions/ea4op/gen3/u1060-gen3-50.sol
NAME : u1060
TYPE : OP
DIMENSION : 1060
COST_LIMIT : 112047
ROUTE_NODES : 588
ROUTE_SCORE : 36570
ROUTE_COST : 112035
NODE_SEQUENCE_SECTION
1
105
106
107
108
96
95
890
891
893
903
906
904
905
907
908
912
913
914
915
919
920
923
851
850
849
848
847
852
855
856
225
226
227
228
230
229
853
843
842
844
846
845
841
840
241
242
244
245
246
240
239
236
235
251
250
252
249
248
310
311
312
287
288
289
291
292
293
294
295
296
297
299
298
300
350
351
352
354
353
363
358
362
361
360
359
366
367
369
368
490
489
488
487
486
485
484
492
491
493
495
498
502
501
500
499
507
508
509
510
511
506
513
512
505
504
503
518
519
520
516
515
517
521
522
523
524
525
532
526
479
481
480
475
476
472
474
473
471
470
467
468
469
477
478
528
527
531
530
529
550
551
552
553
554
555
556
460
461
462
463
464
423
424
426
425
418
417
416
419
414
415
422
421
420
413
411
410
409
408
407
379
378
377
380
381
382
383
384
385
386
387
388
393
394
395
396
397
398
399
400
403
401
402
428
430
431
432
433
434
436
435
440
439
438
601
602
603
611
610
621
620
619
613
612
614
615
616
617
618
624
623
622
626
625
627
628
632
629
630
631
636
637
638
639
641
644
645
640
646
648
647
649
650
651
652
653
654
655
659
660
661
662
642
643
664
663
658
657
656
666
665
667
668
670
669
635
634
633
673
672
674
675
683
608
609
607
606
605
604
600
599
446
445
444
443
441
442
448
447
449
458
459
456
457
450
452
451
598
597
596
594
595
592
593
686
687
688
689
690
682
681
680
676
677
679
678
716
717
715
714
713
711
710
709
720
721
722
708
707
706
705
704
703
702
691
692
693
694
695
696
697
591
590
589
587
586
588
569
570
571
454
455
559
558
560
561
557
562
563
564
565
566
567
568
572
573
574
575
576
736
578
577
579
580
581
585
584
583
582
698
701
699
700
723
724
725
726
727
728
729
731
730
734
735
739
740
741
742
743
744
745
746
747
748
749
538
536
537
542
543
544
547
546
548
549
540
541
539
534
535
750
751
752
753
754
755
756
757
758
759
760
761
762
763
764
765
766
767
769
770
768
777
778
776
771
772
773
774
775
779
780
781
782
783
784
785
786
787
788
789
790
791
792
793
794
795
796
797
798
799
800
801
802
803
804
805
337
336
338
341
340
342
344
347
346
345
328
329
330
331
335
333
332
334
813
812
811
810
809
825
826
832
830
829
828
942
944
943
967
968
969
970
972
971
973
974
982
978
981
983
985
986
990
989
994
995
996
997
1004
998
999
1002
1000
1014
1015
1013
1016
1017
1018
1019
1020
1021
1010
1011
1012
1001
1009
1008
1003
1005
1007
1023
1006
1024
1025
1022
1026
1027
1028
65
63
62
60
59
58
1032
1033
1035
1045
1047
1048
1049
1052
1055
1056
1057
1058
-1
DEPOT_SECTION
1
-1
EOF
